6971
0 1 0 0 0 1 0 0 1 1 0 0 1 1 1 1 0 0 0 0 
12 8 13 9 15 8 1 13 13 1 9 8 15 14 15 15 1 13 5 14 5 9 9 9 12 12 9 13 13 13 1 8 15 8 14 14 14 15 1 1 1 12 13 12 9 5 8 14 15 15 12 1 1 13 13 5 12 5 14 5 12 9 13 13 9 13 15 15 15 15 14 8 15 8 15 14 8 8 15 15 
